c Random Network
p min 10 20
n 1 1
n 10 -1
c Transformed from a max-flow problem.
a 	 2	5	0	12	0
a 	 5	7	0	27	0
a 	 1	2	0	50	0
a 	 10	2	0	37	0
a 	 3	1	0	30	0
a 	 1	3	0	35	0
a 	 7	6	0	25	0
a 	 2	8	0	29	0
a 	 2	1	0	15	0
a 	 10	5	0	19	0
a 	 2	9	0	11	0
a 	 7	1	0	36	0
a 	 9	1	0	39	0
a 	 3	10	0	50	0
a 	 4	1	0	20	0
a 	 2	4	0	23	0
a 	 1	4	0	3	0
a 	 3	4	0	25	0
a 	 10	1	0	12	0
a 	 3	6	0	40	0